GLPSOL--GLPK LP/MIP Solver 5.0
Parameter(s) specified in the command line:
 --lp ../modeles/10_254.lp --log 10_254.log
Reading problem data from '../modeles/10_254.lp'...
2581 rows, 5100 columns, 17810 non-zeros
2540 integer variables, all of which are binary
7697 lines were read
GLPK Integer Optimizer 5.0
2581 rows, 5100 columns, 17810 non-zeros
2540 integer variables, all of which are binary
Preprocessing...
2500 constraint coefficient(s) were reduced
2581 rows, 5090 columns, 17800 non-zeros
2540 integer variables, all of which are binary
Scaling...
 A: min|aij| =  2.480e-04  max|aij| =  4.000e+00  ratio =  1.613e+04
GM: min|aij| =  8.874e-02  max|aij| =  1.127e+01  ratio =  1.270e+02
EQ: min|aij| =  7.874e-03  max|aij| =  1.000e+00  ratio =  1.270e+02
2N: min|aij| =  7.812e-03  max|aij| =  1.750e+00  ratio =  2.240e+02
Constructing initial basis...
Size of triangular part is 2581
Solving LP relaxation...
GLPK Simplex Optimizer 5.0
2581 rows, 5090 columns, 17800 non-zeros
      0: obj =   2.000000000e+01 inf =   4.950e+01 (21)
    169: obj =   2.666263603e-01 inf =   0.000e+00 (0)
*   538: obj =  -3.161993470e+00 inf =   3.931e-15 (0)
OPTIMAL LP SOLUTION FOUND
Integer optimization begins...
Long-step dual simplex will be used
+   538: mip =     not found yet >=              -inf        (1; 0)
+   618: >>>>>  -3.161993470e+00 >=  -3.161993470e+00   0.0% (80; 0)
+   618: mip =  -3.161993470e+00 >=     tree is empty   0.0% (0; 159)
INTEGER OPTIMAL SOLUTION FOUND
Time used:   0.3 secs
Memory used: 7.4 Mb (7747918 bytes)
